100
    1   500   500
    2   418   418
    3   776   776
    4   651   651
    5   526   526
    6   668   668
    7    79    79
    8   744   744
    9   864   864
   10   646   646
   11   518   518
   12   165   165
   13   801   801
   14   966   966
   15   680   680
   16   952   952
   17   193   193
   18   347   347
   19   766   766
   20   303   303
   21   272   272
   22   771   771
   23   847   847
   24   799   799
   25   160   160
   26   759   759
   27   632   632
   28   870   870
   29   633   633
   30   931   931
   31   969   969
   32   944   944
   33   393   393
   34   682   682
   35   212   212
   36   174   174
   37   701   701
   38   223   223
   39   474   474
   40   558   558
   41   857   857
   42   350   350
   43   420   420
   44    11    11
   45   496   496
   46   592   592
   47   475   475
   48   788   788
   49     1     1
   50   501   501
   51   492   492
   52    43    43
   53   958   958
   54   812   812
   55   788   788
   56   508   508
   57   938   938
   58   598   598
   59   875   875
   60   437   437
   61   150   150
   62    33    33
   63   856   856
   64   588   588
   65    16    16
   66   352   352
   67    25    25
   68    19    19
   69   304   304
   70   888   888
   71   541   541
   72   121   121
   73   472   472
   74   221   221
   75   281   281
   76   835   835
   77   344   344
   78   211   211
   79   739   739
   80   312   312
   81   427   427
   82    64    64
   83   838   838
   84   394   394
   85   306   306
   86   486   486
   87   890   890
   88    47    47
   89   403   403
   90   287   287
   91   959   959
   92   223   223
   93   102   102
   94   625   625
   95   790   790
   96   569   569
   97   419   419
   98   825   825
   99    12    12
  100   414   414
16965
